c Result of efficient AIG-to-CNF conversion using package CNF
p cnf 226 769
-2 3 157 158 161 0
-2 -3 -157 158 161 0
2 -161 0
2 -3 157 0
2 -158 0
2 3 -157 0
3 -4 -64 0
3 -4 -32 0
3 -32 -64 0
-3 32 64 0
-3 4 64 0
-3 4 32 0
4 -195 5 0
4 195 -5 0
-4 195 5 0
-4 -195 -5 0
-5 196 6 0
5 -196 0
5 -6 0
-6 197 7 0
6 -197 0
6 -7 0
-7 198 8 0
7 -198 0
7 -8 0
-8 199 9 0
8 -199 0
8 -9 0
-9 200 10 0
9 -200 0
9 -10 0
-10 201 11 0
10 -201 0
10 -11 0
-11 202 12 0
11 -202 0
11 -12 0
-12 203 13 0
12 -203 0
12 -13 0
-13 204 14 0
13 -204 0
13 -14 0
-14 205 15 0
14 -205 0
14 -15 0
-15 206 16 0
15 -206 0
15 -16 0
-16 207 17 0
16 -207 0
16 -17 0
-17 208 18 0
17 -208 0
17 -18 0
-18 209 19 0
18 -209 0
18 -19 0
-19 210 20 0
19 -210 0
19 -20 0
-20 211 21 0
20 -211 0
20 -21 0
-21 212 22 0
21 -212 0
21 -22 0
-22 213 23 0
22 -213 0
22 -23 0
-23 214 24 0
23 -214 0
23 -24 0
-24 215 25 0
24 -215 0
24 -25 0
-25 216 26 0
25 -216 0
25 -26 0
-26 217 27 0
26 -217 0
26 -27 0
-27 218 28 0
27 -218 0
27 -28 0
-28 219 29 0
28 -219 0
28 -29 0
-29 220 30 0
29 -220 0
29 -30 0
-30 221 31 0
30 -221 0
30 -31 0
-31 222 223 224 225 0
31 -225 0
31 -224 0
31 -222 0
31 -223 0
-32 -33 -34 0
-32 33 34 0
32 33 -34 0
32 -33 34 0
33 163 -195 0
33 -163 195 0
-33 -163 -195 0
-33 163 195 0
34 -164 -196 0
34 -196 -35 0
34 -164 -35 0
-34 164 35 0
-34 196 35 0
-34 164 196 0
35 -165 -197 0
35 -197 -36 0
35 -165 -36 0
-35 165 36 0
-35 197 36 0
-35 165 197 0
36 -166 -198 0
36 -198 -37 0
36 -166 -37 0
-36 166 37 0
-36 198 37 0
-36 166 198 0
37 -167 -199 0
37 -199 -38 0
37 -167 -38 0
-37 167 38 0
-37 199 38 0
-37 167 199 0
38 -168 -200 0
38 -200 -39 0
38 -168 -39 0
-38 168 39 0
-38 200 39 0
-38 168 200 0
39 -169 -201 0
39 -201 -40 0
39 -169 -40 0
-39 169 40 0
-39 201 40 0
-39 169 201 0
40 -170 -202 0
40 -202 -41 0
40 -170 -41 0
-40 170 41 0
-40 202 41 0
-40 170 202 0
41 -171 -203 0
41 -203 -42 0
41 -171 -42 0
-41 171 42 0
-41 203 42 0
-41 171 203 0
42 -172 -204 0
42 -204 -43 0
42 -172 -43 0
-42 172 43 0
-42 204 43 0
-42 172 204 0
43 -173 -205 0
43 -205 -44 0
43 -173 -44 0
-43 173 44 0
-43 205 44 0
-43 173 205 0
44 -174 -206 0
44 -206 -45 0
44 -174 -45 0
-44 174 45 0
-44 206 45 0
-44 174 206 0
45 -175 -207 0
45 -207 -46 0
45 -175 -46 0
-45 175 46 0
-45 207 46 0
-45 175 207 0
46 -176 -208 0
46 -208 -47 0
46 -176 -47 0
-46 176 47 0
-46 208 47 0
-46 176 208 0
47 -177 -209 0
47 -209 -48 0
47 -177 -48 0
-47 177 48 0
-47 209 48 0
-47 177 209 0
48 -178 -210 0
48 -210 -49 0
48 -178 -49 0
-48 178 49 0
-48 210 49 0
-48 178 210 0
49 -179 -211 0
49 -211 -50 0
49 -179 -50 0
-49 179 50 0
-49 211 50 0
-49 179 211 0
50 -180 -212 0
50 -212 -51 0
50 -180 -51 0
-50 180 51 0
-50 212 51 0
-50 180 212 0
51 -181 -213 0
51 -213 -52 0
51 -181 -52 0
-51 181 52 0
-51 213 52 0
-51 181 213 0
52 -182 -214 0
52 -214 -53 0
52 -182 -53 0
-52 182 53 0
-52 214 53 0
-52 182 214 0
53 -183 -215 0
53 -215 -54 0
53 -183 -54 0
-53 183 54 0
-53 215 54 0
-53 183 215 0
54 -184 -216 0
54 -216 -55 0
54 -184 -55 0
-54 184 55 0
-54 216 55 0
-54 184 216 0
55 -185 -217 0
55 -217 -56 0
55 -185 -56 0
-55 185 56 0
-55 217 56 0
-55 185 217 0
56 -186 -218 0
56 -218 -57 0
56 -186 -57 0
-56 186 57 0
-56 218 57 0
-56 186 218 0
57 -187 -219 0
57 -219 -58 0
57 -187 -58 0
-57 187 58 0
-57 219 58 0
-57 187 219 0
58 -188 -220 0
58 -220 -59 0
58 -188 -59 0
-58 188 59 0
-58 220 59 0
-58 188 220 0
59 -189 -221 0
59 -221 -60 0
59 -189 -60 0
-59 221 60 0
-59 189 221 0
-59 189 60 0
-60 222 61 0
-60 190 222 0
-60 190 61 0
60 -190 -222 0
60 -222 -61 0
60 -190 -61 0
-61 223 63 0
-61 191 62 0
-61 191 63 0
-61 223 62 0
-61 191 223 0
61 -191 -223 0
61 -191 -62 -63 0
61 -223 -62 -63 0
-62 193 224 0
-62 192 225 0
-62 224 225 0
-62 192 193 0
62 -192 -224 0
62 -193 -225 0
-63 192 224 0
63 -192 0
63 -224 0
64 -65 -68 0
64 -65 -66 0
64 -66 -68 0
-64 66 68 0
-64 65 68 0
-64 65 66 0
65 -196 6 0
65 196 -6 0
-65 196 6 0
-65 -196 -6 0
-66 -35 -67 0
-66 35 67 0
66 35 -67 0
66 -35 67 0
67 164 -196 0
67 -164 196 0
-67 -164 -196 0
-67 164 196 0
68 -69 -72 0
68 -69 -70 0
68 -70 -72 0
-68 70 72 0
-68 69 72 0
-68 69 70 0
69 -197 7 0
69 197 -7 0
-69 197 7 0
-69 -197 -7 0
-70 -36 -71 0
-70 36 71 0
70 36 -71 0
70 -36 71 0
71 165 -197 0
71 -165 197 0
-71 -165 -197 0
-71 165 197 0
72 -73 -76 0
72 -73 -74 0
72 -74 -76 0
-72 74 76 0
-72 73 76 0
-72 73 74 0
73 -198 8 0
73 198 -8 0
-73 198 8 0
-73 -198 -8 0
-74 -37 -75 0
-74 37 75 0
74 37 -75 0
74 -37 75 0
75 166 -198 0
75 -166 198 0
-75 -166 -198 0
-75 166 198 0
76 -77 -80 0
76 -77 -78 0
76 -78 -80 0
-76 78 80 0
-76 77 80 0
-76 77 78 0
77 -199 9 0
77 199 -9 0
-77 199 9 0
-77 -199 -9 0
-78 -38 -79 0
-78 38 79 0
78 38 -79 0
78 -38 79 0
79 167 -199 0
79 -167 199 0
-79 -167 -199 0
-79 167 199 0
80 -81 -84 0
80 -81 -82 0
80 -82 -84 0
-80 82 84 0
-80 81 84 0
-80 81 82 0
81 -200 10 0
81 200 -10 0
-81 200 10 0
-81 -200 -10 0
-82 -39 -83 0
-82 39 83 0
82 39 -83 0
82 -39 83 0
83 168 -200 0
83 -168 200 0
-83 -168 -200 0
-83 168 200 0
84 -85 -88 0
84 -85 -86 0
84 -86 -88 0
-84 86 88 0
-84 85 88 0
-84 85 86 0
85 -201 11 0
85 201 -11 0
-85 201 11 0
-85 -201 -11 0
-86 -40 -87 0
-86 40 87 0
86 40 -87 0
86 -40 87 0
87 169 -201 0
87 -169 201 0
-87 -169 -201 0
-87 169 201 0
88 -89 -92 0
88 -89 -90 0
88 -90 -92 0
-88 90 92 0
-88 89 92 0
-88 89 90 0
89 -202 12 0
89 202 -12 0
-89 202 12 0
-89 -202 -12 0
-90 -41 -91 0
-90 41 91 0
90 41 -91 0
90 -41 91 0
91 170 -202 0
91 -170 202 0
-91 -170 -202 0
-91 170 202 0
92 -93 -96 0
92 -93 -94 0
92 -94 -96 0
-92 94 96 0
-92 93 96 0
-92 93 94 0
93 -203 13 0
93 203 -13 0
-93 203 13 0
-93 -203 -13 0
-94 -42 -95 0
-94 42 95 0
94 42 -95 0
94 -42 95 0
95 171 -203 0
95 -171 203 0
-95 -171 -203 0
-95 171 203 0
96 -97 -100 0
96 -97 -98 0
96 -98 -100 0
-96 98 100 0
-96 97 100 0
-96 97 98 0
97 -204 14 0
97 204 -14 0
-97 204 14 0
-97 -204 -14 0
-98 -43 -99 0
-98 43 99 0
98 43 -99 0
98 -43 99 0
99 172 -204 0
99 -172 204 0
-99 -172 -204 0
-99 172 204 0
100 -101 -104 0
100 -101 -102 0
100 -102 -104 0
-100 102 104 0
-100 101 104 0
-100 101 102 0
101 -205 15 0
101 205 -15 0
-101 205 15 0
-101 -205 -15 0
-102 -44 -103 0
-102 44 103 0
102 44 -103 0
102 -44 103 0
103 173 -205 0
103 -173 205 0
-103 -173 -205 0
-103 173 205 0
104 -105 -108 0
104 -105 -106 0
104 -106 -108 0
-104 106 108 0
-104 105 108 0
-104 105 106 0
105 -206 16 0
105 206 -16 0
-105 206 16 0
-105 -206 -16 0
-106 -45 -107 0
-106 45 107 0
106 45 -107 0
106 -45 107 0
107 174 -206 0
107 -174 206 0
-107 -174 -206 0
-107 174 206 0
108 -109 -112 0
108 -109 -110 0
108 -110 -112 0
-108 110 112 0
-108 109 112 0
-108 109 110 0
109 -207 17 0
109 207 -17 0
-109 207 17 0
-109 -207 -17 0
-110 -46 -111 0
-110 46 111 0
110 46 -111 0
110 -46 111 0
111 175 -207 0
111 -175 207 0
-111 -175 -207 0
-111 175 207 0
112 -113 -116 0
112 -113 -114 0
112 -114 -116 0
-112 114 116 0
-112 113 116 0
-112 113 114 0
113 -208 18 0
113 208 -18 0
-113 208 18 0
-113 -208 -18 0
-114 -47 -115 0
-114 47 115 0
114 47 -115 0
114 -47 115 0
115 176 -208 0
115 -176 208 0
-115 -176 -208 0
-115 176 208 0
116 -117 -120 0
116 -117 -118 0
116 -118 -120 0
-116 118 120 0
-116 117 120 0
-116 117 118 0
117 -209 19 0
117 209 -19 0
-117 209 19 0
-117 -209 -19 0
-118 -48 -119 0
-118 48 119 0
118 48 -119 0
118 -48 119 0
119 177 -209 0
119 -177 209 0
-119 -177 -209 0
-119 177 209 0
120 -122 -124 0
120 -121 -122 0
120 -121 -124 0
-120 121 122 0
-120 122 124 0
-120 121 124 0
121 -210 20 0
121 210 -20 0
-121 210 20 0
-121 -210 -20 0
-122 -49 -123 0
-122 49 123 0
122 49 -123 0
122 -49 123 0
123 178 -210 0
123 -178 210 0
-123 -178 -210 0
-123 178 210 0
-124 125 127 0
-124 211 21 125 0
-124 211 21 127 0
-124 -211 -21 125 0
-124 -211 -21 127 0
124 -125 -127 0
124 211 -21 -127 0
124 -211 21 -127 0
124 -211 21 -125 0
124 211 -21 -125 0
-125 -50 -126 0
-125 50 126 0
125 50 -126 0
125 -50 126 0
126 179 -211 0
126 -179 211 0
-126 -179 -211 0
-126 179 211 0
-127 128 129 0
-127 51 128 156 0
-127 -51 128 -156 0
-127 -51 129 -156 0
-127 51 129 156 0
127 -128 -129 0
127 51 -128 -156 0
127 51 -129 -156 0
127 -51 -128 156 0
127 -51 -129 156 0
128 -212 22 0
128 212 -22 0
-128 212 22 0
-128 -212 -22 0
-129 130 131 0
-129 52 130 155 0
-129 -52 130 -155 0
-129 -52 131 -155 0
-129 52 131 155 0
129 -130 -131 0
129 52 -130 -155 0
129 52 -131 -155 0
129 -52 -130 155 0
129 -52 -131 155 0
130 -213 23 0
130 213 -23 0
-130 213 23 0
-130 -213 -23 0
-131 132 133 0
-131 53 132 154 0
-131 -53 132 -154 0
-131 -53 133 -154 0
-131 53 133 154 0
131 -132 -133 0
131 53 -132 -154 0
131 53 -133 -154 0
131 -53 -132 154 0
131 -53 -133 154 0
132 -214 24 0
132 214 -24 0
-132 214 24 0
-132 -214 -24 0
-133 134 135 0
-133 54 134 153 0
-133 -54 134 -153 0
-133 -54 135 -153 0
-133 54 135 153 0
133 -134 -135 0
133 54 -134 -153 0
133 54 -135 -153 0
133 -54 -134 153 0
133 -54 -135 153 0
134 -215 25 0
134 215 -25 0
-134 215 25 0
-134 -215 -25 0
-135 136 137 0
-135 55 136 152 0
-135 -55 136 -152 0
-135 -55 137 -152 0
-135 55 137 152 0
135 -136 -137 0
135 55 -136 -152 0
135 55 -137 -152 0
135 -55 -136 152 0
135 -55 -137 152 0
136 -216 26 0
136 216 -26 0
-136 216 26 0
-136 -216 -26 0
-137 138 139 0
-137 56 138 151 0
-137 -56 138 -151 0
-137 -56 139 -151 0
-137 56 139 151 0
137 -138 -139 0
137 56 -138 -151 0
137 56 -139 -151 0
137 -56 -138 151 0
137 -56 -139 151 0
138 -217 27 0
138 217 -27 0
-138 217 27 0
-138 -217 -27 0
-139 140 141 0
-139 -57 141 -150 0
-139 57 140 150 0
-139 57 141 150 0
-139 -57 140 -150 0
139 -140 -141 0
139 57 -140 -150 0
139 -57 -141 150 0
139 -57 -140 150 0
139 57 -141 -150 0
140 -218 28 0
140 218 -28 0
-140 218 28 0
-140 -218 -28 0
141 -142 -145 0
141 -142 -143 0
141 -143 -145 0
-141 143 145 0
-141 142 145 0
-141 142 143 0
142 -219 29 0
142 219 -29 0
-142 219 29 0
-142 -219 -29 0
-143 -58 -144 0
-143 58 144 0
143 58 -144 0
143 -58 144 0
144 187 -219 0
144 -187 219 0
-144 -187 -219 0
-144 187 219 0
145 -146 -147 0
145 -147 -149 0
145 -146 -149 0
-145 146 149 0
-145 147 149 0
-145 146 147 0
146 -220 30 0
146 220 -30 0
-146 220 30 0
-146 -220 -30 0
147 59 -148 0
147 -59 148 0
-147 -59 -148 0
-147 59 148 0
148 188 -220 0
148 -188 220 0
-148 -188 -220 0
-148 188 220 0
149 221 -31 60 0
149 -189 -221 31 -60 0
149 189 -221 60 0
149 189 221 -31 0
-149 -189 -221 60 0
-149 189 -221 -60 0
-149 221 31 0
-149 -189 -31 -60 0
150 186 -218 0
150 -186 218 0
-150 -186 -218 0
-150 186 218 0
151 185 -217 0
151 -185 217 0
-151 -185 -217 0
-151 185 217 0
152 184 -216 0
152 -184 216 0
-152 -184 -216 0
-152 184 216 0
153 183 -215 0
153 -183 215 0
-153 -183 -215 0
-153 183 215 0
154 182 -214 0
154 -182 214 0
-154 -182 -214 0
-154 182 214 0
155 181 -213 0
155 -181 213 0
-155 -181 -213 0
-155 181 213 0
156 180 -212 0
156 -180 212 0
-156 -180 -212 0
-156 180 212 0
157 163 -195 34 0
157 195 -5 34 0
157 163 195 -5 0
-157 -163 -195 0
-157 -195 -34 0
-157 -163 -34 0
-157 195 5 0
-158 6 159 0
-158 -35 159 0
-158 -68 159 0
158 -159 0
158 -6 35 68 0
-159 -64 -160 0
-159 64 160 0
159 64 -160 0
159 -64 160 0
160 -5 34 0
-160 5 0
-160 -34 0
161 -7 36 72 0
-161 7 0
-161 -72 0
-161 -36 0
-226 0
2 0

